40
2 1 1
3 2 2
4 0 1
5 0 2
5 2 1
5 4 2
6 1 2
6 3 1
6 4 2
7 0 1
7 1 2
7 4 1
7 6 1
8 2 2
8 3 2
8 5 2
8 6 1
9 0 1
9 1 1
9 3 2
9 4 1
9 5 1
9 6 1
9 7 1
10 0 1
10 1 1
10 2 2
10 3 1
10 4 1
10 5 1
10 6 2
11 6 1
11 8 2
11 9 2
11 10 1
12 1 2
12 3 2
12 7 1
12 8 1
12 11 1
13 0 1
13 1 1
13 2 1
13 4 2
13 5 2
13 8 2
13 10 1
13 11 2
14 0 2
14 6 1
14 8 1
14 9 2
15 1 1
15 3 2
15 4 2
15 7 1
15 9 2
15 10 1
15 11 1
15 12 2
15 14 2
16 2 1
16 4 2
16 5 1
16 6 2
16 7 1
16 8 2
16 14 1
17 1 2
17 4 2
17 5 2
17 6 1
17 9 1
17 10 2
17 12 2
17 15 2
18 0 1
18 1 1
18 4 1
18 5 2
18 6 2
18 8 2
18 11 1
18 13 2
19 0 2
19 1 2
19 4 1
19 6 1
19 7 1
19 10 1
19 11 1
19 13 2
19 14 2
19 16 2
19 17 1
19 18 2
20 0 1
20 1 1
20 5 1
20 6 1
20 10 2
20 11 2
20 13 1
20 19 1
21 3 1
21 4 2
21 8 1
21 11 2
21 15 2
21 17 1
21 18 2
21 20 1
22 0 2
22 1 2
22 3 2
22 4 2
22 6 2
22 7 2
22 11 2
22 12 1
22 13 1
22 15 2
22 16 2
22 17 2
22 18 2
22 20 1
22 21 2
23 0 1
23 1 1
23 4 2
23 5 1
23 9 1
23 12 2
23 14 2
23 17 1
23 18 2
24 0 1
24 3 1
24 6 1
24 10 1
24 12 1
24 16 1
24 17 2
24 19 2
24 22 1
24 23 2
25 1 1
25 2 1
25 3 2
25 5 2
25 7 2
25 8 2
25 9 2
25 11 1
25 17 1
25 18 2
25 19 1
25 21 1
25 23 1
25 24 1
26 0 2
26 3 2
26 6 2
26 7 1
26 12 2
26 14 2
26 15 2
26 16 1
26 17 1
26 20 1
26 22 1
26 23 2
26 24 1
27 0 2
27 1 1
27 3 1
27 4 1
27 7 2
27 9 1
27 10 2
27 11 1
27 12 2
27 13 2
27 15 1
27 17 2
27 19 2
27 20 1
27 21 2
27 22 1
27 23 2
27 24 2
27 26 2
28 2 2
28 6 2
28 9 2
28 11 2
28 12 1
28 14 1
28 16 1
28 19 2
28 25 1
28 26 1
29 1 2
29 2 1
29 4 1
29 8 1
29 9 2
29 10 2
29 11 2
29 16 1
29 17 1
29 18 1
29 20 2
29 21 2
29 22 1
29 23 1
29 24 1
29 25 2
29 28 1
30 3 1
30 7 2
30 9 1
30 11 2
30 12 1
30 14 1
30 16 1
30 17 1
30 19 2
30 21 1
30 24 1
30 25 1
30 26 2
30 28 1
31 0 1
31 3 2
31 4 1
31 5 2
31 6 2
31 8 1
31 9 2
31 11 1
31 12 2
31 13 2
31 15 1
31 17 2
31 19 2
31 20 2
31 21 1
31 22 1
31 23 2
31 25 1
31 27 2
32 3 1
32 9 1
32 11 2
32 17 1
32 18 2
32 20 2
32 21 2
32 23 1
32 24 1
32 26 2
32 28 2
32 30 2
33 1 1
33 4 1
33 5 1
33 6 2
33 8 1
33 9 1
33 11 1
33 13 2
33 14 1
33 16 1
33 17 1
33 19 1
33 20 1
33 21 2
33 22 2
33 25 2
33 26 2
33 27 1
33 28 1
33 31 1
33 32 2
34 1 1
34 2 2
34 3 2
34 5 2
34 7 2
34 9 1
34 12 1
34 14 2
34 15 2
34 16 2
34 18 2
34 21 1
34 22 2
34 25 1
34 26 2
34 31 1
35 2 1
35 4 1
35 8 2
35 9 1
35 13 2
35 14 2
35 15 2
35 16 2
35 18 2
35 19 2
35 20 1
35 21 2
35 23 1
35 24 1
35 29 2
35 31 1
35 32 2
36 1 1
36 3 2
36 5 1
36 6 1
36 7 1
36 9 2
36 10 2
36 11 2
36 13 2
36 16 1
36 17 1
36 19 2
36 20 2
36 21 1
36 22 1
36 23 2
36 24 2
36 26 1
36 27 1
36 28 2
36 29 2
36 30 2
36 31 2
36 33 2
37 3 1
37 5 2
37 6 2
37 12 1
37 13 1
37 14 1
37 15 2
37 18 1
37 21 1
37 22 2
37 23 1
37 27 1
37 28 2
37 30 1
37 31 2
37 33 2
37 36 2
38 0 2
38 1 1
38 2 2
38 3 1
38 5 1
38 9 1
38 12 1
38 14 1
38 16 2
38 18 2
38 20 1
38 21 1
38 22 2
38 24 2
38 27 2
38 31 2
38 34 1
38 36 2
39 0 1
39 3 1
39 5 1
39 6 1
39 7 1
39 8 1
39 9 1
39 10 2
39 15 1
39 20 1
39 21 2
39 23 1
39 25 1
39 28 2
39 29 1
39 31 2
39 32 1
39 36 1
39 38 2
